
Gurobi 10.0.1 (win64) logging started Sat May 20 14:16:52 2023

Set parameter LogFile to value "logFiles/N-1L-B/N-1L-13U-20F-23V-240D-basic-heuristic.log"
Gurobi Optimizer version 10.0.1 build v10.0.1rc0 (win64)

CPU model: Intel(R) Core(TM) i7-10700 CPU @ 2.90GHz, instruction set [SSE2|AVX|AVX2]
Thread count: 8 physical cores, 16 logical processors, using up to 16 threads

Optimize a model with 191379 rows, 2277322 columns and 17349777 nonzeros
Model fingerprint: 0xa6a19e6e
Variable types: 3413 continuous, 2273909 integer (2273909 binary)
Coefficient statistics:
  Matrix range     [1e+00, 2e+05]
  Objective range  [4e+01, 3e+07]
  Bounds range     [1e+00, 1e+00]
  RHS range        [1e+00, 3e+06]
Presolve removed 105199 rows and 44586 columns (presolve time = 5s) ...
Presolve removed 111689 rows and 67244 columns (presolve time = 10s) ...
Presolve removed 114279 rows and 116045 columns (presolve time = 15s) ...
Presolve removed 114279 rows and 116045 columns (presolve time = 20s) ...
Presolve removed 114279 rows and 116045 columns (presolve time = 25s) ...
Presolve removed 114289 rows and 116287 columns (presolve time = 30s) ...
Presolve removed 113929 rows and 115927 columns
Presolve time: 30.66s
Presolved: 77450 rows, 2161395 columns, 12709121 nonzeros
Variable types: 3495 continuous, 2157900 integer (2157696 binary)
Deterministic concurrent LP optimizer: primal simplex, dual simplex, and barrier
Showing barrier log only...

Root barrier log...

Ordering time: 2.78s

Barrier statistics:
 AA' NZ     : 5.882e+06
 Factor NZ  : 2.840e+07 (roughly 1.1 GB of memory)
 Factor Ops : 9.276e+10 (roughly 1 second per iteration)
 Threads    : 5

                  Objective                Residual
Iter       Primal          Dual         Primal    Dual     Compl     Time
   0  -1.39435398e+17  1.16557333e+13  1.43e+10 5.91e+05  2.54e+11    54s
   1  -3.53512867e+16  1.68039632e+13  3.64e+09 4.96e+05  6.49e+10    57s
   2  -6.34928128e+15  1.54766888e+13  6.60e+08 5.48e+04  1.18e+10    60s
   3  -2.75788486e+14  1.08221221e+13  2.86e+07 2.16e+03  5.20e+08    64s
   4  -4.92806489e+13  4.08428489e+12  5.11e+06 1.63e-09  9.76e+07    67s
   5  -1.13702681e+13  2.85748661e+12  1.18e+06 1.63e-09  2.37e+07    72s
   6  -7.17430772e+12  2.73682562e+12  7.44e+05 1.40e-09  1.52e+07    75s
   7  -2.56153717e+12  2.39916240e+12  2.66e+05 1.67e+01  5.70e+06    79s
   8  -1.23933388e+12  2.01009055e+12  1.28e+05 1.03e+01  2.89e+06    81s
   9  -8.61906503e+11  1.73014673e+12  8.94e+04 8.02e+00  2.03e+06    84s
  10  -4.69327773e+11  1.38470794e+12  4.88e+04 6.23e+00  1.16e+06    87s
  11  -1.75379955e+11  1.18297105e+12  1.85e+04 4.75e+00  5.78e+05    90s
  12  -8.81188398e+10  6.56472875e+11  9.46e+03 1.97e+00  2.86e+05    94s
  13  -2.54549909e+10  2.80814424e+11  2.97e+03 6.05e-01  9.98e+04    98s
  14  -3.69418938e+09  1.02923393e+11  7.13e+02 1.63e-01  3.02e+04   102s
  15  -2.53930832e+09  8.99835822e+10  5.94e+02 1.41e-01  2.59e+04   106s
  16  -2.34348954e+08  5.64660356e+10  3.55e+02 7.66e-02  1.56e+04   111s
  17   1.63286548e+09  3.90160329e+10  1.61e+02 4.82e-02  9.74e+03   115s
  18   2.18601399e+09  3.24556151e+10  1.05e+02 3.83e-02  7.70e+03   119s
  19   2.45906366e+09  2.77641803e+10  7.67e+01 3.26e-02  6.36e+03   123s
  20   2.57593755e+09  2.45717007e+10  6.51e+01 2.84e-02  5.53e+03   127s
  21   2.77720284e+09  1.64868898e+10  4.58e+01 1.79e-02  3.50e+03   133s
  22   2.98027105e+09  1.22365531e+10  2.73e+01 1.18e-02  2.35e+03   138s
  23   3.00597573e+09  1.14842005e+10  2.50e+01 1.08e-02  2.16e+03   144s
  24   3.02789629e+09  9.64088210e+09  2.29e+01 8.31e-03  1.73e+03   149s
  25   3.04439110e+09  9.39895397e+09  2.14e+01 8.03e-03  1.66e+03   154s
  26   3.05334108e+09  8.60955462e+09  2.08e+01 6.91e-03  1.48e+03   160s
  27   3.09081473e+09  7.47761956e+09  1.76e+01 5.52e-03  1.18e+03   165s
  28   3.11275761e+09  7.18993475e+09  1.61e+01 5.19e-03  1.10e+03   171s
  29   3.13886462e+09  6.53355971e+09  1.42e+01 6.40e-03  9.23e+02   176s
  30   3.18030374e+09  5.97217811e+09  1.11e+01 3.67e-03  7.50e+02   182s
  31   3.22997991e+09  5.62188856e+09  7.11e+00 2.98e-03  6.19e+02   187s
  32   3.24653070e+09  5.16550620e+09  5.80e+00 2.32e-03  4.93e+02   193s
  33   3.25720134e+09  4.80327290e+09  5.12e+00 1.83e-03  3.97e+02   198s
  34   3.27196704e+09  4.44501899e+09  4.17e+00 1.29e-03  2.98e+02   203s
  35   3.28529854e+09  4.20579080e+09  3.42e+00 9.29e-04  2.32e+02   209s
  36   3.30040959e+09  4.08288630e+09  2.62e+00 7.71e-04  1.94e+02   215s
  37   3.30763101e+09  3.92328999e+09  2.17e+00 5.91e-04  1.51e+02   220s
  38   3.31067070e+09  3.83179673e+09  1.98e+00 4.85e-04  1.28e+02   226s
  39   3.31878035e+09  3.68858420e+09  1.56e+00 3.26e-04  8.97e+01   231s
  40   3.32436165e+09  3.64709743e+09  1.30e+00 2.84e-04  7.78e+01   236s
  41   3.33030100e+09  3.57927267e+09  1.06e+00 2.13e-04  5.96e+01   242s
  42   3.33421457e+09  3.54186959e+09  9.18e-01 1.73e-04  4.95e+01   247s
  43   3.33798962e+09  3.50691243e+09  8.01e-01 1.38e-04  4.01e+01   253s
  44   3.34386470e+09  3.48798799e+09  6.38e-01 1.17e-04  3.41e+01   258s
  45   3.34982403e+09  3.46767488e+09  4.81e-01 9.65e-05  2.78e+01   263s
  46   3.35437732e+09  3.45456120e+09  3.84e-01 8.36e-05  2.35e+01   269s
  47   3.35718607e+09  3.44281120e+09  3.39e-01 6.99e-05  2.01e+01   274s
  48   3.36253551e+09  3.43139090e+09  2.57e-01 5.55e-05  1.61e+01   280s
  49   3.36639316e+09  3.41972234e+09  2.10e-01 4.24e-05  1.25e+01   285s
  50   3.36878916e+09  3.41820818e+09  1.84e-01 4.08e-05  1.16e+01   289s
  51   3.36988990e+09  3.41736916e+09  1.73e-01 3.97e-05  1.11e+01   295s
  52   3.37160932e+09  3.41296761e+09  1.56e-01 3.41e-05  9.67e+00   301s
  53   3.37456429e+09  3.40913180e+09  1.28e-01 3.00e-05  8.08e+00   308s
  54   3.37605949e+09  3.40595406e+09  1.14e-01 2.58e-05  6.99e+00   314s
  55   3.37749978e+09  3.40370274e+09  1.02e-01 2.26e-05  6.12e+00   320s
  56   3.37923613e+09  3.40187555e+09  8.71e-02 2.01e-05  5.29e+00   326s
  57   3.37979841e+09  3.40057366e+09  8.25e-02 1.79e-05  4.86e+00   330s
  58   3.38089944e+09  3.39914791e+09  7.35e-02 1.55e-05  4.27e+00   336s
  59   3.38201238e+09  3.39770107e+09  6.50e-02 1.30e-05  3.67e+00   342s
  60   3.38327272e+09  3.39716347e+09  5.52e-02 1.20e-05  3.25e+00   347s
  61   3.38469124e+09  3.39584113e+09  4.43e-02 9.68e-06  2.61e+00   352s
  62   3.38589458e+09  3.39471296e+09  3.54e-02 7.44e-06  2.06e+00   357s
  63   3.38656986e+09  3.39436206e+09  3.03e-02 6.81e-06  1.82e+00   363s
  64   3.38770243e+09  3.39360883e+09  2.21e-02 5.31e-06  1.38e+00   368s
  65   3.38834727e+09  3.39294584e+09  1.75e-02 3.99e-06  1.07e+00   374s
  66   3.38887968e+09  3.39271975e+09  1.38e-02 3.58e-06  8.97e-01   378s
  67   3.38923979e+09  3.39249484e+09  1.12e-02 3.16e-06  7.60e-01   383s
  68   3.38981546e+09  3.39184948e+09  7.22e-03 1.89e-06  4.75e-01   389s
  69   3.39013153e+09  3.39151549e+09  5.03e-03 1.23e-06  3.23e-01   394s
  70   3.39045113e+09  3.39138341e+09  2.82e-03 9.91e-07  2.17e-01   399s
  71   3.39065568e+09  3.39113815e+09  1.46e-03 4.97e-07  1.13e-01   405s
  72   3.39075631e+09  3.39106975e+09  8.05e-04 3.68e-07  7.31e-02   409s
  73   3.39078922e+09  3.39100780e+09  5.79e-04 2.39e-07  5.10e-02   413s
  74   3.39081083e+09  3.39096985e+09  4.49e-04 1.62e-07  3.71e-02   417s
  75   3.39082443e+09  3.39093470e+09  3.62e-04 9.13e-08  2.58e-02   420s
  76   3.39086680e+09  3.39090985e+09  1.05e-04 8.07e-08  1.00e-02   424s
  77   3.39088056e+09  3.39089808e+09  2.84e-05 5.44e-08  4.07e-03   429s
  78   3.39088206e+09  3.39089204e+09  2.15e-05 7.58e-08  2.33e-03   433s
  79   3.39088420e+09  3.39088977e+09  2.15e-05 9.88e-08  1.30e-03   436s
  80   3.39088473e+09  3.39088850e+09  2.04e-05 1.02e-07  8.78e-04   439s
  81   3.39088520e+09  3.39088708e+09  2.11e-05 9.03e-08  4.39e-04   443s
  82   3.39088553e+09  3.39088636e+09  1.52e-05 8.95e-08  1.94e-04   446s
  83   3.39088571e+09  3.39088590e+09  2.68e-06 7.73e-08  4.41e-05   451s
  84   3.39088576e+09  3.39088579e+09  3.60e-07 9.23e-08  6.80e-06   455s
  85   3.39088577e+09  3.39088577e+09  2.59e-08 8.06e-08  3.45e-07   460s
  86   3.39088577e+09  3.39088577e+09  1.20e-07 8.52e-08  1.43e-08   464s
  87   3.39088577e+09  3.39088577e+09  4.23e-09 5.97e-08  6.52e-11   469s

Barrier solved model in 87 iterations and 469.17 seconds (225.47 work units)
Optimal objective 3.39088577e+09


Root crossover log...

   65465 DPushes remaining with DInf 0.0000000e+00               470s
    4398 DPushes remaining with DInf 0.0000000e+00               470s
     148 DPushes remaining with DInf 0.0000000e+00               479s
      68 DPushes remaining with DInf 0.0000000e+00               487s
       8 DPushes remaining with DInf 0.0000000e+00               495s
       0 DPushes remaining with DInf 0.0000000e+00               496s

    1690 PPushes remaining with PInf 1.2555905e-05               496s
       0 PPushes remaining with PInf 0.0000000e+00               496s

  Push phase complete: Pinf 0.0000000e+00, Dinf 6.0394604e-02    496s


Root simplex log...

Iteration    Objective       Primal Inf.    Dual Inf.      Time
   67155    3.3908858e+09   0.000000e+00   6.039335e-02    497s
   67156    3.3908858e+09   0.000000e+00   0.000000e+00    498s
Concurrent spin time: 4.51s

Solved with barrier
   67156    3.3908858e+09   0.000000e+00   0.000000e+00    504s

Root relaxation: objective 3.390886e+09, 67156 iterations, 466.21 seconds (167.54 work units)
Total elapsed time = 507.49s
Total elapsed time = 512.23s

    Nodes    |    Current Node    |     Objective Bounds      |     Work
 Expl Unexpl |  Obj  Depth IntInf | Incumbent    BestBd   Gap | It/Node Time

     0     0 3.3909e+09    0 1552          - 3.3909e+09      -     -  521s
     0     0 3.3909e+09    0 1489          - 3.3909e+09      -     -  582s
     0     0 3.3909e+09    0 1596          - 3.3909e+09      -     - 1045s
     0     0 3.3909e+09    0 1502          - 3.3909e+09      -     - 1683s
     0     0 3.3909e+09    0 1493          - 3.3909e+09      -     - 1807s
     0     0 3.3909e+09    0 1536          - 3.3909e+09      -     - 2401s
     0     0 3.3909e+09    0 1475          - 3.3909e+09      -     - 2763s
     0     0 3.3909e+09    0 1472          - 3.3909e+09      -     - 3053s
     0     0 3.3909e+09    0 1458          - 3.3909e+09      -     - 3157s
     0     0 3.3909e+09    0 1450          - 3.3909e+09      -     - 3241s
     0     0 3.3909e+09    0 1460          - 3.3909e+09      -     - 3428s
     0     0 3.3907e+09    0 1568          - 3.3907e+09      -     - 9137s
     0     0 3.3907e+09    0 1550          - 3.3907e+09      -     - 9685s
     0     0 3.3907e+09    0 1516          - 3.3907e+09      -     - 9727s
     0     0 3.3907e+09    0 1498          - 3.3907e+09      -     - 9996s
     0     0 3.3907e+09    0 1507          - 3.3907e+09      -     - 10030s
     0     0 3.3907e+09    0 1513          - 3.3907e+09      -     - 10044s

Cutting planes:
  Cover: 1
  Implied bound: 24
  Clique: 3
  MIR: 41
  Flow cover: 5
  RLT: 40
  Relax-and-lift: 3

Explored 1 nodes (184424 simplex iterations) in 10800.26 seconds (7764.45 work units)
Thread count was 16 (of 16 available processors)

Solution count 0

Time limit reached
Best objective -, best bound 3.390715666555e+09, gap -
IIS computation: initial model status unknown, solving to determine model status
Presolve removed 105199 rows and 44587 columns (presolve time = 5s) ...
Presolve removed 111689 rows and 44587 columns (presolve time = 10s) ...
Presolve removed 114277 rows and 116046 columns
Presolve time: 14.63s

Explored 0 nodes (0 simplex iterations) in 19.49 seconds (39.05 work units)
Thread count was 1 (of 16 available processors)

Solution count 0

Solve interrupted
Best objective -, best bound -, gap -
IIS runtime: 19.52 seconds (39.05 work units)
